(declare-const X String)
; Host\x3A\w+wwwfromToolbartheServer\x3Awww\x2Esearchreslt\x2Ecom
(assert (str.in_re X (re.++ (str.to_re "Host:") (re.+ (re.union (re.range "0" "9") (re.range "A" "Z") (re.range "a" "z") (str.to_re "_"))) (str.to_re "wwwfromToolbartheServer:www.searchreslt.com\u{a}"))))
(check-sat)
